# Solution for model PD-Stages
# Objective value = 4.2808142912506071e+01
zigjg[101,102,11] 0
zigjg[101,203,11] 1
zigjg[101,303,11] 0
zigjg[101,304,11] 0
zigjg[101,405,11] 0
zigjg[101,505,11] 0
zigjg[101,506,11] 0
zigjg[101,607,11] 0
zigjg[101,707,11] 0
zigjg[101,708,11] 0
zigjg[101,809,11] 0
zigjg[101,909,11] 0
zigjg[102,101,11] 0
zigjg[102,203,11] 0
zigjg[102,303,11] 0
zigjg[102,304,11] 0
zigjg[102,405,11] 0
zigjg[102,505,11] 0
zigjg[102,506,11] 0
zigjg[102,607,11] 0
zigjg[102,707,11] 0
zigjg[102,708,11] 0
zigjg[102,809,11] 0
zigjg[102,909,11] 1
zigjg[203,101,11] 0
zigjg[203,102,11] 0
zigjg[203,303,11] 0
zigjg[203,304,11] 0
zigjg[203,405,11] 0
zigjg[203,505,11] 0
zigjg[203,506,11] 0
zigjg[203,607,11] 0
zigjg[203,707,11] 0
zigjg[203,708,11] 0
zigjg[203,809,11] 1
zigjg[203,909,11] 0
zigjg[303,101,11] 0
zigjg[303,102,11] 0
zigjg[303,203,11] 0
zigjg[303,304,11] 0
zigjg[303,405,11] 0
zigjg[303,505,11] 0
zigjg[303,506,11] 0
zigjg[303,607,11] 0
zigjg[303,707,11] 0
zigjg[303,708,11] 1
zigjg[303,809,11] 0
zigjg[303,909,11] 0
zigjg[304,101,11] 0
zigjg[304,102,11] 0
zigjg[304,203,11] 0
zigjg[304,303,11] 0
zigjg[304,405,11] 0
zigjg[304,505,11] 1
zigjg[304,506,11] 0
zigjg[304,607,11] 0
zigjg[304,707,11] 0
zigjg[304,708,11] 0
zigjg[304,809,11] 0
zigjg[304,909,11] 0
zigjg[405,101,11] 0
zigjg[405,102,11] 1
zigjg[405,203,11] 0
zigjg[405,303,11] 0
zigjg[405,304,11] 0
zigjg[405,505,11] 0
zigjg[405,506,11] 0
zigjg[405,607,11] 0
zigjg[405,707,11] 0
zigjg[405,708,11] 0
zigjg[405,809,11] 0
zigjg[405,909,11] 0
zigjg[505,101,11] 0
zigjg[505,102,11] 0
zigjg[505,203,11] 0
zigjg[505,303,11] 0
zigjg[505,304,11] 0
zigjg[505,405,11] 0
zigjg[505,506,11] 0
zigjg[505,607,11] 0
zigjg[505,707,11] 1
zigjg[505,708,11] 0
zigjg[505,809,11] 0
zigjg[505,909,11] 0
zigjg[506,101,11] 0
zigjg[506,102,11] 0
zigjg[506,203,11] 0
zigjg[506,303,11] 0
zigjg[506,304,11] 1
zigjg[506,405,11] 0
zigjg[506,505,11] 0
zigjg[506,607,11] 0
zigjg[506,707,11] 0
zigjg[506,708,11] 0
zigjg[506,809,11] 0
zigjg[506,909,11] 0
zigjg[607,101,11] 0
zigjg[607,102,11] 0
zigjg[607,203,11] 0
zigjg[607,303,11] 0
zigjg[607,304,11] 0
zigjg[607,405,11] 1
zigjg[607,505,11] 0
zigjg[607,506,11] 0
zigjg[607,707,11] 0
zigjg[607,708,11] 0
zigjg[607,809,11] 0
zigjg[607,909,11] 0
zigjg[707,101,11] 0
zigjg[707,102,11] 0
zigjg[707,203,11] 0
zigjg[707,303,11] 0
zigjg[707,304,11] 0
zigjg[707,405,11] 0
zigjg[707,505,11] 0
zigjg[707,506,11] 0
zigjg[707,607,11] 1
zigjg[707,708,11] 0
zigjg[707,809,11] 0
zigjg[707,909,11] 0
zigjg[708,101,11] 1
zigjg[708,102,11] 0
zigjg[708,203,11] 0
zigjg[708,303,11] 0
zigjg[708,304,11] 0
zigjg[708,405,11] 0
zigjg[708,505,11] 0
zigjg[708,506,11] 0
zigjg[708,607,11] 0
zigjg[708,707,11] 0
zigjg[708,809,11] 0
zigjg[708,909,11] 0
zigjg[809,101,11] 0
zigjg[809,102,11] 0
zigjg[809,203,11] 0
zigjg[809,303,11] 0
zigjg[809,304,11] 0
zigjg[809,405,11] 0
zigjg[809,505,11] 0
zigjg[809,506,11] 1
zigjg[809,607,11] 0
zigjg[809,707,11] 0
zigjg[809,708,11] 0
zigjg[809,909,11] 0
zigjg[909,101,11] 0
zigjg[909,102,11] 0
zigjg[909,203,11] 0
zigjg[909,303,11] 1
zigjg[909,304,11] 0
zigjg[909,405,11] 0
zigjg[909,505,11] 0
zigjg[909,506,11] 0
zigjg[909,607,11] 0
zigjg[909,707,11] 0
zigjg[909,708,11] 0
zigjg[909,809,11] 0
sig[101,11] 0
sig[102,11] 9
sig[203,11] 1
sig[303,11] 11
sig[304,11] 4
sig[405,11] 8
sig[505,11] 5
sig[506,11] 3
sig[607,11] 7
sig[707,11] 6
sig[708,11] 12
sig[809,11] 2
sig[909,11] 10
digjg[101,102,11] 10000
digjg[101,203,11] 1.0785273454466804e+00
digjg[101,303,11] 10000
digjg[101,304,11] 10000
digjg[101,405,11] 10000
digjg[101,505,11] 10000
digjg[101,506,11] 10000
digjg[101,607,11] 10000
digjg[101,707,11] 10000
digjg[101,708,11] 10000
digjg[101,809,11] 10000
digjg[101,909,11] 10000
digjg[102,101,11] 10000
digjg[102,203,11] 10000
digjg[102,303,11] 10000
digjg[102,304,11] 10000
digjg[102,405,11] 10000
digjg[102,505,11] 10000
digjg[102,506,11] 10000
digjg[102,607,11] 10000
digjg[102,707,11] 10000
digjg[102,708,11] 10000
digjg[102,809,11] 10000
digjg[102,909,11] 3.6183074202228513e+00
digjg[203,101,11] 10000
digjg[203,102,11] 10000
digjg[203,303,11] 10000
digjg[203,304,11] 10000
digjg[203,405,11] 10000
digjg[203,505,11] 10000
digjg[203,506,11] 10000
digjg[203,607,11] 10000
digjg[203,707,11] 10000
digjg[203,708,11] 10000
digjg[203,809,11] 3.0347857056811356e+00
digjg[203,909,11] 10000
digjg[303,101,11] 10000
digjg[303,102,11] 10000
digjg[303,203,11] 10000
digjg[303,304,11] 10000
digjg[303,405,11] 10000
digjg[303,505,11] 10000
digjg[303,506,11] 10000
digjg[303,607,11] 10000
digjg[303,707,11] 10000
digjg[303,708,11] 1.9421683797748581e+00
digjg[303,809,11] 10000
digjg[303,909,11] 10000
digjg[304,101,11] 10000
digjg[304,102,11] 10000
digjg[304,203,11] 10000
digjg[304,303,11] 10000
digjg[304,405,11] 10000
digjg[304,505,11] 3.7419902291133487e-07
digjg[304,506,11] 10000
digjg[304,607,11] 10000
digjg[304,707,11] 10000
digjg[304,708,11] 10000
digjg[304,809,11] 10000
digjg[304,909,11] 10000
digjg[405,101,11] 10000
digjg[405,102,11] 3.4941193675639162e+00
digjg[405,203,11] 10000
digjg[405,303,11] 10000
digjg[405,304,11] 10000
digjg[405,505,11] 10000
digjg[405,506,11] 10000
digjg[405,607,11] 10000
digjg[405,707,11] 10000
digjg[405,708,11] 10000
digjg[405,809,11] 10000
digjg[405,909,11] 10000
digjg[505,101,11] 10000
digjg[505,102,11] 10000
digjg[505,203,11] 10000
digjg[505,303,11] 10000
digjg[505,304,11] 10000
digjg[505,405,11] 10000
digjg[505,506,11] 10000
digjg[505,607,11] 10000
digjg[505,707,11] 5.4591328880810241e-01
digjg[505,708,11] 10000
digjg[505,809,11] 10000
digjg[505,909,11] 10000
digjg[506,101,11] 10000
digjg[506,102,11] 10000
digjg[506,203,11] 10000
digjg[506,303,11] 10000
digjg[506,304,11] 6.5214796845440981e-01
digjg[506,405,11] 10000
digjg[506,505,11] 10000
digjg[506,607,11] 10000
digjg[506,707,11] 10000
digjg[506,708,11] 10000
digjg[506,809,11] 10000
digjg[506,909,11] 10000
digjg[607,101,11] 10000
digjg[607,102,11] 10000
digjg[607,203,11] 10000
digjg[607,303,11] 10000
digjg[607,304,11] 10000
digjg[607,405,11] 1.9376422950181266e-06
digjg[607,505,11] 10000
digjg[607,506,11] 10000
digjg[607,707,11] 10000
digjg[607,708,11] 10000
digjg[607,809,11] 10000
digjg[607,909,11] 10000
digjg[707,101,11] 10000
digjg[707,102,11] 10000
digjg[707,203,11] 10000
digjg[707,303,11] 10000
digjg[707,304,11] 10000
digjg[707,405,11] 10000
digjg[707,505,11] 10000
digjg[707,506,11] 10000
digjg[707,607,11] 4.9689281900500162e-02
digjg[707,708,11] 10000
digjg[707,809,11] 10000
digjg[707,909,11] 10000
digjg[708,101,11] 3.8787910555602538e+00
digjg[708,102,11] 10000
digjg[708,203,11] 10000
digjg[708,303,11] 10000
digjg[708,304,11] 10000
digjg[708,405,11] 10000
digjg[708,505,11] 10000
digjg[708,506,11] 10000
digjg[708,607,11] 10000
digjg[708,707,11] 10000
digjg[708,809,11] 10000
digjg[708,909,11] 10000
digjg[809,101,11] 10000
digjg[809,102,11] 10000
digjg[809,203,11] 10000
digjg[809,303,11] 10000
digjg[809,304,11] 10000
digjg[809,405,11] 10000
digjg[809,505,11] 10000
digjg[809,506,11] 3.2303827343076259e+00
digjg[809,607,11] 10000
digjg[809,707,11] 10000
digjg[809,708,11] 10000
digjg[809,909,11] 10000
digjg[909,101,11] 10000
digjg[909,102,11] 10000
digjg[909,203,11] 10000
digjg[909,303,11] 3.6983255187393960e+00
digjg[909,304,11] 10000
digjg[909,405,11] 10000
digjg[909,505,11] 10000
digjg[909,506,11] 10000
digjg[909,607,11] 10000
digjg[909,707,11] 10000
digjg[909,708,11] 10000
digjg[909,809,11] 10000
difigjg[101,102,11,0] 4.5901410702592175e+03
difigjg[101,102,11,1] 4.7868988611121522e+03
difigjg[101,203,11,0] 3.2143588364357212e-01
difigjg[101,203,11,1] 1.02951430838175
difigjg[101,303,11,0] 5348.89574234105
difigjg[101,303,11,1] 3.9073203038539932e+03
difigjg[101,304,11,0] 4.7276510674243809e+03
difigjg[101,304,11,1] 4.0409373785187245e+03
difigjg[101,405,11,0] 5384.04482167729
difigjg[101,405,11,1] 3.9360852441653528e+03
difigjg[101,505,11,0] 5355.51741823335
difigjg[101,505,11,1] 3.8975031899991131e+03
difigjg[101,506,11,0] 5.3455792503986913e+03
difigjg[101,506,11,1] 3.9447639112460006e+03
difigjg[101,607,11,0] 5.4684358671629934e+03
difigjg[101,607,11,1] 3.8852440429531257e+03
difigjg[101,707,11,0] 5.3218588016567492e+03
difigjg[101,707,11,1] 3.9349185050748979e+03
difigjg[101,708,11,0] 5372.71557995231
difigjg[101,708,11,1] 3.9304242775159391e+03
difigjg[101,809,11,0] 5.3903943653932038e+03
difigjg[101,809,11,1] 3.9229889935371934e+03
difigjg[101,909,11,0] 5.3698584629030656e+03
difigjg[101,909,11,1] 3.8861107997512590e+03
difigjg[102,101,11,0] 4.5878159481190814e+03
difigjg[102,101,11,1] 4915.94844605702
difigjg[102,203,11,0] 4.1395605963339331e+03
difigjg[102,203,11,1] 5.0335643824993213e+03
difigjg[102,303,11,0] 5.2471606052197712e+03
difigjg[102,303,11,1] 4.0488316876047152e+03
difigjg[102,304,11,0] 4.2982877983299677e+03
difigjg[102,304,11,1] 4.2739041082453368e+03
difigjg[102,405,11,0] 4.2921524441277179e+03
difigjg[102,405,11,1] 4.2524394042401336e+03
difigjg[102,505,11,0] 5.2297319656955815e+03
difigjg[102,505,11,1] 4.0503620000176056e+03
difigjg[102,506,11,0] 5.1292326591305728e+03
difigjg[102,506,11,1] 4.0786332554358773e+03
difigjg[102,607,11,0] 4.3281384568195363e+03
difigjg[102,607,11,1] 4.2962465617194239e+03
difigjg[102,707,11,0] 4.3658430266073947e+03
difigjg[102,707,11,1] 4.2721819560864988e+03
difigjg[102,708,11,0] 5.0537417603695676e+03
difigjg[102,708,11,1] 4.1564262759030662e+03
difigjg[102,809,11,0] 4.2971334683979921e+03
difigjg[102,809,11,1] 4.2471823615558988e+03
difigjg[102,909,11,0] 3.8107687640633693e-02
difigjg[102,909,11,1] 3.6181042856843653e+00
difigjg[203,101,11,0] 5.5090435634838068e+03
difigjg[203,101,11,1] 3.8804718719089569e+03
difigjg[203,102,11,0] 4.1518997308265607e+03
difigjg[203,102,11,1] 5.0456919465322117e+03
difigjg[203,303,11,0] 4.2065500188489832e+03
difigjg[203,303,11,1] 4.9669946112183543e+03
difigjg[203,304,11,0] 4.1465001794967848e+03
difigjg[203,304,11,1] 5.0379997630597518e+03
difigjg[203,405,11,0] 5.0721439889530593e+03
difigjg[203,405,11,1] 4.1195597803396322e+03
difigjg[203,505,11,0] 5.2190548576750125e+03
difigjg[203,505,11,1] 4.0592793218172274e+03
difigjg[203,506,11,0] 4.3621616692510706e+03
difigjg[203,506,11,1] 4.2633605133016836e+03
difigjg[203,607,11,0] 1.4651202899101747e+00
difigjg[203,607,11,1] 1.6804801554857107e+00
difigjg[203,707,11,0] 5.1960489273996673e+03
difigjg[203,707,11,1] 4.0865981151560904e+03
difigjg[203,708,11,0] 4.3082668398444885e+03
difigjg[203,708,11,1] 4.3405110038413877e+03
difigjg[203,809,11,0] 6.7159517072111513e-02
difigjg[203,809,11,1] 3.0340411603813733e+00
difigjg[203,909,11,0] 4.2930922153330957e+03
difigjg[203,909,11,1] 4.2599490583930719e+03
difigjg[303,101,11,0] 5.5246027435858050e+03
difigjg[303,101,11,1] 3.8463390261588911e+03
difigjg[303,102,11,0] 5.2234647223806533e+03
difigjg[303,102,11,1] 4.0333434983878697e+03
difigjg[303,203,11,0] 4.1714995259156976e+03
difigjg[303,203,11,1] 5.0197580015859876e+03
difigjg[303,304,11,0] 4.3795009073326510e+03
difigjg[303,304,11,1] 4.8769602144072369e+03
difigjg[303,405,11,0] 4.3275331137987687e+03
difigjg[303,405,11,1] 4.2632511834046572e+03
difigjg[303,505,11,0] 5.2430874337966534e+03
difigjg[303,505,11,1] 4.0164334756456087e+03
difigjg[303,506,11,0] 5.2049535238805356e+03
difigjg[303,506,11,1] 4.0372099925149087e+03
difigjg[303,607,11,0] 4.3468508074282909e+03
difigjg[303,607,11,1] 4.2869320738271590e+03
difigjg[303,707,11,0] 5.2190573852782982e+03
difigjg[303,707,11,1] 4.0514789320089794e+03
difigjg[303,708,11,0] 8.1789591296038844e-01
difigjg[303,708,11,1] 1.7615511201643170e+00
difigjg[303,809,11,0] 5.2290489245494618e+03
difigjg[303,809,11,1] 4.0326520774905821e+03
difigjg[303,909,11,0] 5.2287487775981526e+03
difigjg[303,909,11,1] 4.0032031907209389e+03
difigjg[304,101,11,0] 4.7359039874480050e+03
difigjg[304,101,11,1] 4.1255164297427054e+03
difigjg[304,102,11,0] 4.2938354313979735e+03
difigjg[304,102,11,1] 4.2635667543204654e+03
difigjg[304,203,11,0] 4.1339717802992609e+03
difigjg[304,203,11,1] 5.0299928134745724e+03
difigjg[304,303,11,0] 4.3487485065813617e+03
difigjg[304,303,11,1] 4.9414146210707013e+03
difigjg[304,405,11,0] 4.0743332547339751e+03
difigjg[304,405,11,1] 5.0774259691953657e+03
difigjg[304,505,11,0] 2.1765602231565773e-07
difigjg[304,505,11,1] 2.8379400911307055e-07
difigjg[304,506,11,0] 5.1240508525424511e+03
difigjg[304,506,11,1] 4.0765655045229751e+03
difigjg[304,607,11,0] 4.3252464350467926e+03
difigjg[304,607,11,1] 4.2796118060176659e+03
difigjg[304,707,11,0] 4.3531127514395157e+03
difigjg[304,707,11,1] 4261.07364812804
difigjg[304,708,11,0] 4.2452181316780634e+03
difigjg[304,708,11,1] 4.2681722931587074e+03
difigjg[304,809,11,0] 4.3132746668480613e+03
difigjg[304,809,11,1] 4.2433469391096487e+03
difigjg[304,909,11,0] 4.3560809012828568e+03
difigjg[304,909,11,1] 4.2173609458204155e+03
difigjg[405,101,11,0] 5.5094275924287076e+03
difigjg[405,101,11,1] 3.8978951994982312e+03
difigjg[405,102,11,0] 3.2850668352304440e+00
difigjg[405,102,11,1] 1.1904641271860035e+00
difigjg[405,203,11,0] 5.0687249231720843e+03
difigjg[405,203,11,1] 4.1078611792287529e+03
difigjg[405,303,11,0] 4.3729891134114032e+03
difigjg[405,303,11,1] 4.2093950605574437e+03
difigjg[405,304,11,0] 4.0850672172632030e+03
difigjg[405,304,11,1] 5.0843851242535193e+03
difigjg[405,505,11,0] 5.0500773793094559e+03
difigjg[405,505,11,1] 4.7996514672663043e+03
difigjg[405,506,11,0] 4.2013711418511166e+03
difigjg[405,506,11,1] 5.0281455423601883e+03
difigjg[405,607,11,0] 4.3169394667041352e+03
difigjg[405,607,11,1] 4.2786250533082612e+03
difigjg[405,707,11,0] 5.1848298220062570e+03
difigjg[405,707,11,1] 4.0801059181046348e+03
difigjg[405,708,11,0] 4.2790565872448033e+03
difigjg[405,708,11,1] 4.2843063634080063e+03
difigjg[405,809,11,0] 5.0875560985225211e+03
difigjg[405,809,11,1] 4.1035378079677466e+03
difigjg[405,909,11,0] 4.2739519130649442e+03
difigjg[405,909,11,1] 4.2411031679984590e+03
difigjg[505,101,11,0] 5.5206865408308913e+03
difigjg[505,101,11,1] 3.8546821608276973e+03
difigjg[505,102,11,0] 5.2284073660955992e+03
difigjg[505,102,11,1] 4.0329172458178405e+03
difigjg[505,203,11,0] 5234.81070039836
difigjg[505,203,11,1] 4.0307044543889592e+03
difigjg[505,303,11,0] 5.2653262650521874e+03
difigjg[505,303,11,1] 4.0264199014312612e+03
difigjg[505,304,11,0] 5.2365472746662608e+03
difigjg[505,304,11,1] 4.0103942616375580e+03
difigjg[505,405,11,0] 5.0613942479359639e+03
difigjg[505,405,11,1] 4.7907904564512073e+03
difigjg[505,506,11,0] 5.0355986972035353e+03
difigjg[505,506,11,1] 4.8020012863030270e+03
difigjg[505,607,11,0] 4.3726583906740670e+03
difigjg[505,607,11,1] 4.2738749753479960e+03
difigjg[505,707,11,0] 1.9054798107026727e-01
difigjg[505,707,11,1] 0.511578719071976
difigjg[505,708,11,0] 5.2357795132820238e+03
difigjg[505,708,11,1] 4.0353496530207749e+03
difigjg[505,809,11,0] 5.2369545781904790e+03
difigjg[505,809,11,1] 4.0327458423607795e+03
difigjg[505,909,11,0] 5.2372551598506088e+03
difigjg[505,909,11,1] 4.0022106990975140e+03
difigjg[506,101,11,0] 5.4785852043619316e+03
difigjg[506,101,11,1] 3.9486288491461946e+03
difigjg[506,102,11,0] 5.1060449119253244e+03
difigjg[506,102,11,1] 4078.64136940646
difigjg[506,203,11,0] 4.3390928383910777e+03
difigjg[506,203,11,1] 4.2606023062321055e+03
difigjg[506,303,11,0] 5.2602043524268665e+03
difigjg[506,303,11,1] 4.0311640602813059e+03
difigjg[506,304,11,0] 0.534553386402275
difigjg[506,304,11,1] 3.7356338596769673e-01
difigjg[506,405,11,0] 4.1911474825073228e+03
difigjg[506,405,11,1] 5.0224069462209063e+03
difigjg[506,505,11,0] 6.0288701740086026e-01
difigjg[506,505,11,1] 1.7641168511889305e-01
difigjg[506,607,11,0] 4.1343964899497623e+03
difigjg[506,607,11,1] 5.0941991020436171e+03
difigjg[506,707,11,0] 4.3298162962675688e+03
difigjg[506,707,11,1] 4.9769679772395020e+03
difigjg[506,708,11,0] 5.1471302884571542e+03
difigjg[506,708,11,1] 4.0624859510777164e+03
difigjg[506,809,11,0] 4.2110163270420881e+03
difigjg[506,809,11,1] 5.0310408534503449e+03
difigjg[506,909,11,0] 5.1203068969575452e+03
difigjg[506,909,11,1] 4.0749231437826579e+03
difigjg[607,101,11,0] 1.4399675764505560e+00
difigjg[607,101,11,1] 2.5022504704084412e+00
difigjg[607,102,11,0] 4368.7372538839
difigjg[607,102,11,1] 4.3862721039379958e+03
difigjg[607,203,11,0] 5.1863276760019235e+03
difigjg[607,203,11,1] 4.0973666767104305e+03
difigjg[607,303,11,0] 4.3224158291603617e+03
difigjg[607,303,11,1] 4.3052901069873205e+03
difigjg[607,304,11,0] 4.3666427972874935e+03
difigjg[607,304,11,1] 4.3742268254438850e+03
difigjg[607,405,11,0] 1.5076371937115218e-06
difigjg[607,405,11,1] 1.1908128536342399e-06
difigjg[607,505,11,0] 4.3500733739553152e+03
difigjg[607,505,11,1] 4.2914075111848961e+03
difigjg[607,506,11,0] 4.1694817974172256e+03
difigjg[607,506,11,1] 5.0888085773190387e+03
difigjg[607,707,11,0] 5.1737053923495005e+03
difigjg[607,707,11,1] 4.0441653729738141e+03
difigjg[607,708,11,0] 4.3081744138530094e+03
difigjg[607,708,11,1] 4.3048998576480772e+03
difigjg[607,809,11,0] 5.0716453144490170e+03
difigjg[607,809,11,1] 4.0767207561100677e+03
difigjg[607,909,11,0] 4.2795227089669834e+03
difigjg[607,909,11,1] 4.2787142671896827e+03
difigjg[707,101,11,0] 5.5348703173402137e+03
difigjg[707,101,11,1] 3.8502591939491731e+03
difigjg[707,102,11,0] 4.3823552799544750e+03
difigjg[707,102,11,1] 4.1817423400307980e+03
difigjg[707,203,11,0] 5.2373915025093766e+03
difigjg[707,203,11,1] 4.0452841502434312e+03
difigjg[707,303,11,0] 5305.08964122227
difigjg[707,303,11,1] 4.0384613717446591e+03
difigjg[707,304,11,0] 4.4028098279827782e+03
difigjg[707,304,11,1] 4.1627083574373055e+03
difigjg[707,405,11,0] 5.2240949719034825e+03
difigjg[707,405,11,1] 4.0643213829699512e+03
difigjg[707,505,11,0] 5.2686400894423741e+03
difigjg[707,505,11,1] 4.0380714701570073e+03
difigjg[707,506,11,0] 3.7899641888581357e+00
difigjg[707,506,11,1] 2.1207541527985541e-02
difigjg[707,607,11,0] 1.7859646131313411e-02
difigjg[707,607,11,1] 4.6368715486323708e-02
difigjg[707,708,11,0] 4.3906930813521340e+03
difigjg[707,708,11,1] 4.1879728822281377e+03
difigjg[707,809,11,0] 5.0621622734573484e+03
difigjg[707,809,11,1] 4.8110380113954543e+03
difigjg[707,909,11,0] 5.2546816268199809e+03
difigjg[707,909,11,1] 4.0152404592267817e+03
difigjg[708,101,11,0] 1.3656152976147926e+00
difigjg[708,101,11,1] 3.63044197504421
difigjg[708,102,11,0] 5034.14445197875
difigjg[708,102,11,1] 4.1533775723168583e+03
difigjg[708,203,11,0] 4.2860850589400134e+03
difigjg[708,203,11,1] 4.3263250736920372e+03
difigjg[708,303,11,0] 5.2447949199948171e+03
difigjg[708,303,11,1] 4.0332517887942172e+03
difigjg[708,304,11,0] 4.2439265268094277e+03
difigjg[708,304,11,1] 4.2693786188044778e+03
difigjg[708,405,11,0] 4.2646144421906383e+03
difigjg[708,405,11,1] 4268.56084505267
difigjg[708,505,11,0] 5.2283716220111346e+03
difigjg[708,505,11,1] 4.0330764064692562e+03
difigjg[708,506,11,0] 5.1289058755137112e+03
difigjg[708,506,11,1] 4.0881539056581337e+03
difigjg[708,607,11,0] 4.2848446194358758e+03
difigjg[708,607,11,1] 4.2713752279622577e+03
difigjg[708,707,11,0] 4.3703804072220173e+03
difigjg[708,707,11,1] 4256.13328546531
difigjg[708,809,11,0] 4.1615057567492267e+03
difigjg[708,809,11,1] 4998.13029227375
difigjg[708,909,11,0] 9.6079456011729292e-01
difigjg[708,909,11,1] 9999.99995384369
difigjg[809,101,11,0] 5.5005898202401740e+03
difigjg[809,101,11,1] 3.8977038715885183e+03
difigjg[809,102,11,0] 4.3129507375367684e+03
difigjg[809,102,11,1] 4.2345243580574461e+03
difigjg[809,203,11,0] 5.0816746778218430e+03
difigjg[809,203,11,1] 4.1078097163075390e+03
difigjg[809,303,11,0] 5.2316029445929817e+03
difigjg[809,303,11,1] 4057.61641740882
difigjg[809,304,11,0] 4.3264151675641679e+03
difigjg[809,304,11,1] 4.2377703709897569e+03
difigjg[809,405,11,0] 5.0985690764026613e+03
difigjg[809,405,11,1] 4.1044000049612787e+03
difigjg[809,505,11,0] 5221.08705444095
difigjg[809,505,11,1] 4.0526018746698214e+03
difigjg[809,506,11,0] 3.1717548740590384e+00
difigjg[809,506,11,1] 6.1264660218083955e-01
difigjg[809,607,11,0] 5.0825211754337033e+03
difigjg[809,607,11,1] 4.1119076567368638e+03
difigjg[809,707,11,0] 4.9970948143342421e+03
difigjg[809,707,11,1] 4.8376516564376507e+03
difigjg[809,708,11,0] 4.1686452194152907e+03
difigjg[809,708,11,1] 5.0031505796128049e+03
difigjg[809,909,11,0] 4.2928704733292816e+03
difigjg[809,909,11,1] 4.2284140178303105e+03
difigjg[909,101,11,0] 5.5116383004790359e+03
difigjg[909,101,11,1] 3.8784554697520648e+03
difigjg[909,102,11,0] 5.0963447723263289e+03
difigjg[909,102,11,1] 4.0929581211634436e+03
difigjg[909,203,11,0] 4.3005107109799346e+03
difigjg[909,203,11,1] 4.2796002538870162e+03
difigjg[909,303,11,0] 1.4971346260784242e+00
difigjg[909,303,11,1] 3.3817450304976009e+00
difigjg[909,304,11,0] 4.3428613344398027e+03
difigjg[909,304,11,1] 4.1985720050692707e+03
difigjg[909,405,11,0] 4.2853921880811913e+03
difigjg[909,405,11,1] 4.2761222576475120e+03
difigjg[909,505,11,0] 5.2085802498673129e+03
difigjg[909,505,11,1] 4.0172301621067913e+03
difigjg[909,506,11,0] 5110.99423184985
difigjg[909,506,11,1] 4.0930106371681559e+03
difigjg[909,607,11,0] 4.2644911502394752e+03
difigjg[909,607,11,1] 4.2991478725706056e+03
difigjg[909,707,11,0] 5.1830697533911316e+03
difigjg[909,707,11,1] 4.0480020384657560e+03
difigjg[909,708,11,0] 4.9595585653393318e+03
difigjg[909,708,11,1] 4.8232959803104795e+03
difigjg[909,809,11,0] 4.2915031911420956e+03
difigjg[909,809,11,1] 4.2836239350068618e+03
pigjg[101,102,11] 0
pigjg[101,203,11] 1.0785273454457247e+00
pigjg[101,303,11] 0
pigjg[101,304,11] 0
pigjg[101,405,11] 0
pigjg[101,505,11] 0
pigjg[101,506,11] 0
pigjg[101,607,11] 0
pigjg[101,707,11] 0
pigjg[101,708,11] 0
pigjg[101,809,11] 0
pigjg[101,909,11] 0
pigjg[102,101,11] 0
pigjg[102,203,11] 0
pigjg[102,303,11] 0
pigjg[102,304,11] 0
pigjg[102,405,11] 0
pigjg[102,505,11] 0
pigjg[102,506,11] 0
pigjg[102,607,11] 0
pigjg[102,707,11] 0
pigjg[102,708,11] 0
pigjg[102,809,11] 0
pigjg[102,909,11] 3.6183074202228513e+00
pigjg[203,101,11] 0
pigjg[203,102,11] 0
pigjg[203,303,11] 0
pigjg[203,304,11] 0
pigjg[203,405,11] 0
pigjg[203,505,11] 0
pigjg[203,506,11] 0
pigjg[203,607,11] 0
pigjg[203,707,11] 0
pigjg[203,708,11] 0
pigjg[203,809,11] 3.0347857056811356e+00
pigjg[203,909,11] 0
pigjg[303,101,11] 0
pigjg[303,102,11] 0
pigjg[303,203,11] 0
pigjg[303,304,11] 0
pigjg[303,405,11] 0
pigjg[303,505,11] 0
pigjg[303,506,11] 0
pigjg[303,607,11] 0
pigjg[303,707,11] 0
pigjg[303,708,11] 1.9421683797748586e+00
pigjg[303,809,11] 0
pigjg[303,909,11] 0
pigjg[304,101,11] 0
pigjg[304,102,11] 0
pigjg[304,203,11] 0
pigjg[304,303,11] 0
pigjg[304,405,11] 0
pigjg[304,505,11] 0
pigjg[304,506,11] 0
pigjg[304,607,11] 0
pigjg[304,707,11] 0
pigjg[304,708,11] 0
pigjg[304,809,11] 0
pigjg[304,909,11] 0
pigjg[405,101,11] 0
pigjg[405,102,11] 3.4941193675639162e+00
pigjg[405,203,11] 0
pigjg[405,303,11] 0
pigjg[405,304,11] 0
pigjg[405,505,11] 0
pigjg[405,506,11] 0
pigjg[405,607,11] 0
pigjg[405,707,11] 0
pigjg[405,708,11] 0
pigjg[405,809,11] 0
pigjg[405,909,11] 0
pigjg[505,101,11] 0
pigjg[505,102,11] 0
pigjg[505,203,11] 0
pigjg[505,303,11] 0
pigjg[505,304,11] 0
pigjg[505,405,11] 0
pigjg[505,506,11] 0
pigjg[505,607,11] 0
pigjg[505,707,11] 5.4591328880810241e-01
pigjg[505,708,11] 0
pigjg[505,809,11] 0
pigjg[505,909,11] 0
pigjg[506,101,11] 0
pigjg[506,102,11] 0
pigjg[506,203,11] 0
pigjg[506,303,11] 0
pigjg[506,304,11] 6.5214796845440981e-01
pigjg[506,405,11] 0
pigjg[506,505,11] 0
pigjg[506,607,11] 0
pigjg[506,707,11] 0
pigjg[506,708,11] 0
pigjg[506,809,11] 0
pigjg[506,909,11] 0
pigjg[607,101,11] 0
pigjg[607,102,11] 0
pigjg[607,203,11] 0
pigjg[607,303,11] 0
pigjg[607,304,11] 0
pigjg[607,405,11] 1.9376421886786394e-06
pigjg[607,505,11] 0
pigjg[607,506,11] 0
pigjg[607,707,11] 0
pigjg[607,708,11] 0
pigjg[607,809,11] 0
pigjg[607,909,11] 0
pigjg[707,101,11] 0
pigjg[707,102,11] 0
pigjg[707,203,11] 0
pigjg[707,303,11] 0
pigjg[707,304,11] 0
pigjg[707,405,11] 0
pigjg[707,505,11] 0
pigjg[707,506,11] 0
pigjg[707,607,11] 4.9689281900500162e-02
pigjg[707,708,11] 0
pigjg[707,809,11] 0
pigjg[707,909,11] 0
pigjg[708,101,11] 3.8787910555602547e+00
pigjg[708,102,11] 0
pigjg[708,203,11] 0
pigjg[708,303,11] 0
pigjg[708,304,11] 0
pigjg[708,405,11] 0
pigjg[708,505,11] 0
pigjg[708,506,11] 0
pigjg[708,607,11] 0
pigjg[708,707,11] 0
pigjg[708,809,11] 0
pigjg[708,909,11] 0
pigjg[809,101,11] 0
pigjg[809,102,11] 0
pigjg[809,203,11] 0
pigjg[809,303,11] 0
pigjg[809,304,11] 0
pigjg[809,405,11] 0
pigjg[809,505,11] 0
pigjg[809,506,11] 3.2303827343076268e+00
pigjg[809,607,11] 0
pigjg[809,707,11] 0
pigjg[809,708,11] 0
pigjg[809,909,11] 0
pigjg[909,101,11] 0
pigjg[909,102,11] 0
pigjg[909,203,11] 0
pigjg[909,303,11] 3.6983255187430490e+00
pigjg[909,304,11] 0
pigjg[909,405,11] 0
pigjg[909,505,11] 0
pigjg[909,506,11] 0
pigjg[909,607,11] 0
pigjg[909,707,11] 0
pigjg[909,708,11] 0
pigjg[909,809,11] 0
Rig[101,11,0] 5.7190707382769233e+01
Rig[101,11,1] 7.0284705423529957e+01
Rig[102,11,0] 5.5342526266578318e+01
Rig[102,11,1] 7.1044248872701118e+01
Rig[203,11,0] 5.8902146195443848e+01
Rig[203,11,1] 7.1353955185982869e+01
Rig[303,11,0] 5.5569250686358828e+01
Rig[303,11,1] 7.1518029227849709e+01
Rig[304,11,0] 5.4471156599659949e+01
Rig[304,11,1] 7.2536572122944463e+01
Rig[405,11,0] 5.8630673451582560e+01
Rig[405,11,1] 7.2786954251000552e+01
Rig[505,11,0] 5.4402822968660985e+01
Rig[505,11,1] 7.2733723411163623e+01
Rig[506,11,0] 5.6316765914974155e+01
Rig[506,11,1] 7.3293765161334775e+01
Rig[607,11,0] 6.0088870457701120e+01
Rig[607,11,1] 7.3226188904320480e+01
Rig[707,11,0] 5.7524600804916190e+01
Rig[707,11,1] 7.3287006970523848e+01
Rig[708,11,0] 5.6316768392126626e+01
Rig[708,11,1] 73.2937658861781
Rig[809,11,0] 5.8690820757546447e+01
Rig[809,11,1] 7.4579749909216176e+01
Rig[909,11,0] 5.4864297846951445e+01
Rig[909,11,1] 7.5129402815822260e+01
rhoig[101,11] 7.6212118021533115e-01
rhoig[102,11] 3.7228333699507488e-01
rhoig[203,11] 1.6369329612442129e-01
rhoig[303,11] 8.0440231024658715e-01
rhoig[304,11] 1.6127888022736414e-01
rhoig[405,11] 9.5936842825494750e-07
rhoig[505,11] 1.0000000000002274e+00
rhoig[506,11] 1.2942649618707947e-06
rhoig[607,11] 0.0940923812155745
rhoig[707,11] 6.9215891184012435e-01
rhoig[708,11] 1.0000000000000071e+00
rhoig[809,11] 1.1613931841218061e-01
rhoig[909,11] 9.9999986741522662e-01
Lig[101,11,0] 5.8580710311801340e+01
Lig[101,11,1] 7.0324440886027361e+01
Lig[102,11,0] 5.4826521539124357e+01
Lig[102,11,1] 71.5112987022294
Lig[203,11,0] 58.6237501677909
Lig[203,11,1] 7.1545708748834770e+01
Lig[303,11,0] 5.7134664305086517e+01
Lig[303,11,1] 7.1532214824990334e+01
Lig[304,11,0] 5.4402823067026254e+01
Lig[304,11,1] 7.2733723127369615e+01
Lig[405,11,0] 5.8627593220559575e+01
Lig[405,11,1] 7.2234712999887122e+01
Lig[505,11,0] 5.7715148785983729e+01
Lig[505,11,1] 7.2775428251451871e+01
Lig[506,11,0] 5.5005709986062158e+01
Lig[506,11,1] 72.9101350962825
Lig[607,11,0] 5.8630674959219760e+01
Lig[607,11,1] 7.2786955893938412e+01
Lig[707,11,0] 6.0106730103832888e+01
Lig[707,11,1] 73.2725576198068
Lig[708,11,0] 5.5825092407068709e+01
Lig[708,11,1] 7.3915147383200875e+01
Lig[809,11,0] 59.4885207890332
Lig[809,11,1] 7.3906410260877692e+01
Lig[909,11,0] 5.7066385312440616e+01
Lig[909,11,1] 7.4899774179549524e+01
landaig[101,11] 4.2407658538445503e-01
landaig[102,11] 0
landaig[203,11] -1.4210854715202004e-14
landaig[303,11] 3.9215069945066716e-01
landaig[304,11] 2.3215664413100967e-07
landaig[405,11] 4.4490949708078631e-01
landaig[505,11] 2.1654613248529131e-01
landaig[506,11] 6.8500302568244820e-01
landaig[607,11] 0.999999067503893
landaig[707,11] 3.4049819279061921e-02
landaig[708,11] 6.6148998746307086e-01
landaig[809,11] 5.7115903950490576e-01
landaig[909,11] 3.9217841202818704e-01
minig[101,11] 0
minig[102,11] 0
minig[203,11] 0
minig[303,11] 0
minig[304,11] 0
minig[405,11] 4.4490853771235805e-01
minig[505,11] 0
minig[506,11] 6.8500173141751475e-01
minig[607,11] 9.0590668628830484e-01
minig[707,11] 0
minig[708,11] 0
minig[809,11] 4.5501972109272026e-01
minig[909,11] 0
maxig[101,11] 3.3804459483088212e-01
maxig[102,11] 3.7228333699507810e-01
maxig[203,11] 1.6369329612443417e-01
maxig[303,11] 4.1225161079574424e-01
maxig[304,11] 0.16127864807072
maxig[405,11] 0
maxig[505,11] 7.8345386751496215e-01
maxig[506,11] 0
maxig[607,11] 0
maxig[707,11] 6.5810909256124162e-01
maxig[708,11] 3.3851001253693563e-01
maxig[809,11] 0
maxig[909,11] 6.0782145538703314e-01
entryig[101,11] 0
entryig[102,11] 0
entryig[203,11] 0
entryig[303,11] 0
entryig[304,11] 0
entryig[405,11] 1
entryig[505,11] 0
entryig[506,11] 1
entryig[607,11] 1
entryig[707,11] 0
entryig[708,11] 0
entryig[809,11] 1
entryig[909,11] 0
muig[101,11] 1
muig[102,11] 1
muig[203,11] 1
muig[303,11] 1
muig[304,11] 1
muig[405,11] 1
muig[505,11] 1
muig[506,11] 1
muig[607,11] 1
muig[707,11] 1
muig[708,11] 1
muig[809,11] 1
muig[909,11] 1
pig[101,11] 3.3804459483088212e-01
pig[102,11] 3.7228333699507810e-01
pig[203,11] 1.6369329612443417e-01
pig[303,11] 4.1225161079574424e-01
pig[304,11] 0.16127864807072
pig[405,11] 4.4490853771235805e-01
pig[505,11] 7.8345386751496215e-01
pig[506,11] 6.8500173141751475e-01
pig[607,11] 9.0590668628830484e-01
pig[707,11] 6.5810909256124162e-01
pig[708,11] 0.338510012536935
pig[809,11] 4.5501972109272026e-01
pig[909,11] 6.0782145538703314e-01
alphaig[101,11] 3.3804459483088212e-01
alphaig[102,11] 3.7228333699507810e-01
alphaig[203,11] 1.6369329612443417e-01
alphaig[303,11] 4.1225161079574424e-01
alphaig[304,11] 0.16127864807072
alphaig[405,11] 4.4490853771235805e-01
alphaig[505,11] 7.8345386751496215e-01
alphaig[506,11] 6.8500173141751475e-01
alphaig[607,11] 9.0590668628830484e-01
alphaig[707,11] 6.5810909256124162e-01
alphaig[708,11] 0.338510012536935
alphaig[809,11] 4.5501972109272026e-01
alphaig[909,11] 6.0782145538703314e-01
